unsat
(:conflicts            1
 :max-generation       1
 :max-memory           22.33
 :memory               20.76
 :mk-bool-var          132
 :mk-clause            13
 :mk-clause-binary     124
 :num-allocs           2538033
 :num-checks           1
 :quant-instantiations 19
 :rlimit-count         49004
 :time                 0.01)
